multiobj/instances/reallike/Ter-rl-5-2-0.00-1.0-3.in
5 2
0 59 64 103 62 
59 0 70 49 40 
64 70 0 118 33 
103 49 118 0 85 
62 40 33 85 0 
0 0 6 0 25 
0 0 894 1173 0 
6 894 0 59142 0 
0 1173 59142 0 8 
25 0 0 8 0 
0 0 28268 0 0 
0 0 0 0 0 
28268 0 0 6591 81044 
0 0 6591 0 0 
0 0 81044 0 0 
