multiobj/solutions/reallike/Ter-rl-5-2-0.00-1.0-3.out
8 2
0 1 2 4 3 
4129650 23179694 
3 1 2 4 0 
4129930 17479886 
3 1 4 2 0 
4146306 15290022 
3 0 4 2 1 
4168962 11724086 
0 3 4 2 1 
4336994 10423758 
0 3 4 1 2 
5003358 9381416 
2 3 4 0 1 
7732066 9166492 
1 3 4 0 2 
7732230 8427628 
